c array.sh: path:     /data/qbf/qbf20/PCNF/tlc05-uniform-depth-50.qdimacs
c array.sh: name:     tlc05-uniform-depth-50
c array.sh: task:     101
c array.sh: host:     c3n32
c array.sh: uname:    Linux c3n32 4.15.0-135-generic #139-Ubuntu SMP Mon Jan 18 17:38:24 UTC 2021 x86_64 x86_64 x86_64 GNU/Linux
c array.sh: start:    Tue Feb 16 22:54:57 CET 2021
c array.sh: noturbo:  1
c array.sh: governor: 32 performance
c array.sh: tmp:      1%
c array.sh: unzipped: /tmp/local-unzipped-18834727-101-tlc05-uniform-depth-50.cnf
using tmp directory:
  /tmp
running QBF solver...

/home/seidl/cert_tests/bin/ferp-models/ijtihad/ijtihad --dependencies=0 --wit_per_call=-1 --cex_per_call=-1 --log_phi=/tmp/ferpcert3120expanded.cnf /tmp/local-unzipped-18834727-101-tlc05-uniform-depth-50.cnf
c Options after parsing: 
c cex_per_call = 18446744073709551615
c wit_per_call = 18446744073709551615
c warmup = 1
c warmup_randoms = 0
c trimming_phi = 0
c trimming_ksi = 2
c trimming_interval = 200
c memory_limit = 3000000
c MySolverv970-glucose
-1 -2 -3 -4 -5 -6 -7 -8 -9 -10 -11 -12 -13 -14 -15 -16 -17 -18 -19 -20 -21 -22 -23 -24 -25 -26 -27 -28 -29 -30 -31 -32 -33 -34 -35 -36 -37 -38 -39 -40 -41 -42 -43 -44 -45 -46 -47 -48 -49 -50 -51 -52 -53 -54 -55 -56 -57 -58 -59 -60 -61 -62 -63 -64 -65 -66 -67 -68 -69 -70 -71 -72 -73 -74 -75 -76 -77 -78 -79 -80 -81 -82 -83 -84 -85 -86 -87 -88 -89 -90 -91 -92 -93 -94 -95 -96 -97 -98 -99 -100 -101 -102 
1 2 3 4 5 6 7 8 9 10 11 12 13 14 15 16 17 18 19 20 21 22 23 24 25 26 27 28 29 30 31 32 33 34 35 36 37 38 39 40 41 42 43 44 45 46 47 48 49 50 51 52 53 54 55 56 57 58 59 60 61 62 63 64 65 66 67 68 69 70 71 72 73 74 75 76 77 78 79 80 81 82 83 84 85 86 87 88 89 90 91 92 93 94 95 96 97 98 99 100 101 102 
c Number of calls is: 0
c Layers in PHI: 0
c Layers in KSI: 0
c Running Ijtihad loop
c sat_solver_phi calld 0 times, running for 0.380363 seconds.
c number of layers in PHI is 2
c sat_solver_ksi was running for 0 seconds.
c number of layers in KSI is 0
c mysolver was running for 0.496427 seconds.
s cnf 0
solving done with exit code 20

QBF solver OK

running SAT Solver...

/tmp/ferpcert3120expanded.cnf
s UNSATISFIABLE

PROOF GENERATION OK

checking unsat proof

resolved 1 root and 1 empty clause
trace-size2: 15790671

TRACE CHECK OK

running toferp...

ferp-size: 14535770
TOFERP OK

checking FERP PROOF...

c Warning: Variable count mismatch 17748 17749
FERP CHECK OK

extracting AIG ...

aig-size: 101092
aig-header: aag 17748 17496 0 102 102
FERP CERT OK

merging  AIG into QBF ...

CERTCHECK OK

merged-cnf-header: p cnf 142280 320654
merged-cnf-size: 5635712
running SAT solver...

c ---- [ banner ] ------------------------------------------------------------
c
c KISSAT SAT Solver
c Copyright (c) 2019-2020 Armin Biere JKU Linz
c 
c Version 1.0.3 59813addcacc4d6fb880ebdd63685600475aa940
c gcc (Ubuntu 7.5.0-3ubuntu1~18.04) 7.5.0 -W -Wall -O3 -DNEMBEDDED -DNDEBUG -DNMETRICS -DNSTATISTICS
c Sun Feb 14 23:58:54 CET 2021 Linux cluster3 4.15.0-135-generic x86_64
c
c ---- [ parsing ] -----------------------------------------------------------
c
c opened and reading DIMACS file:
c 
c   /tmp/ferpcert_merged_cnf3120.cnf
c 
c parsed 'p cnf 142280 320654' header
c closing input after reading 5635712 bytes (5 MB)
c finished parsing after 0.10 seconds
c
c ---- [ solving ] -----------------------------------------------------------
c
c  seconds reductions redundant irredundant
c         MB   restarts    trail       variables
c          level  conflicts   glue          remaining
c
c *  0.10 20 0  0  0   0   0 0% 0 320652 15438 11%
c {  0.10 20 0  0  0   0   0 0% 0 320652 15438 11%
c i  0.10 20 1  0  0   1   0 0% 0 320652 15437 11%
c -  0.17 12 50  1 48 300 294 49% 2 42898 15437 11%
c i  0.18  7 49  1 51 305 298 49% 2 42898 15435 11%
c i  0.18  7 49  1 52 306 298 48% 2 42898 15432 11%
c i  0.18  7 47  1 61 320 310 46% 2 42898 15431 11%
c i  0.18  7 42  1 87 358 344 41% 2 42898 15429 11%
c i  0.18  7 39  1 95 379 362 38% 2 42898 15428 11%
c i  0.19  7 37  1 135 480 460 32% 2 42898 15375 11%
c i  0.20  7 34  1 165 548 526 30% 3 42898 15322 11%
c i  0.21  7 32  1 181 661 632 31% 2 42898 15321 11%
c i  0.21  7 32  1 181 666 635 31% 2 42898 15304 11%
c i  0.21  7 31  1 188 750 710 32% 3 42898 15302 11%
c -  0.22  7 28  2 203 900 825 30% 3 42463 15302 11%
c i  0.22  7 28  2 208 913 836 30% 3 42463 15272 11%
c i  0.22  7 28  2 210 922 844 29% 3 42463 15247 11%
c i  0.22  7 28  2 210 924 845 29% 3 42463 15216 11%
c i  0.22  7 27  2 210 925 845 29% 3 42463 15159 11%
c }  0.23  7 26  2 232 1000 917 29% 3 42463 15159 11%
c
c  seconds reductions   redundant irredundant
c         MB   restarts      trail      variables
c          level   conflicts    glue         remaining
c
c [  0.23  7 0  2 232 1000 917 0% 0 42463 15159 11%
c O  0.23  7 53  2 232 1002 902 22% 4 41935 15159 11%
c i  0.24  7 13  2 232 1021 920 33% 2 41935 15129 11%
c i  0.24  7 14  2 232 1022 920 32% 2 41935 15121 11%
c i  0.25  7 43  2 232 1259 1148 52% 4 41935 15119 11%
c i  0.25  7 43  2 232 1301 1186 51% 4 41935 15118 11%
c -  0.29  7 36  3 232 1800 1480 37% 6 41815 15118 11%
c d  0.34  7 27  3 233 2501 2049 31% 6 35147 11762 8%
c d  0.34  7 27  3 233 2501 2047 31% 6 34755 11566 8%
c 3  0.34  7 27  3 233 2501 2349 31% 6 34755 11566 8%
c t  0.36  7 27  3 233 2501 2332 31% 6 28735 11454 8%
c f  0.53  8 27  3 233 2501 66220 31% 6 28703 10620 7%
c f  0.53  8 27  3 233 2501 66143 31% 6 28534 10619 7%
c u  0.60  8 27  3 233 2501 65969 31% 6 28534 10564 7%
c v  0.65  8 27  3 233 2501 65773 31% 6 28534 9840 7%
c w  0.77  8 27  3 233 2501 68551 31% 6 27744 6187 4%
c d  0.78  8 27  3 233 2501 66734 31% 6 24854 4800 3%
c d  0.78  9 27  3 233 2501 65498 31% 6 22379 3513 2%
c i  0.78  9 27  3 233 2501 65498 31% 6 22379 3513 2%
c i  0.79  9 27  3 233 2521 65517 32% 6 22379 3464 2%
c
c  seconds  reductions    redundant  irredundant
c         MB    restarts         trail     variables
c          level    conflicts       glue       remaining
c
c i  0.79  9 27  3 233 2540 65535 33% 6 22379 2985 2%
c i  0.79  9 27  3 233 2546 65540 33% 5 22379 2729 2%
c i  0.79  9 27  3 233 2547 65540 33% 5 22379 2692 2%
c ]  0.79  9 27  3 233 2549 65540 33% 5 22379 2584 2%
c 0  0.79  9 26  3 233 2549 65540 29% 3 22379 2584 2%
c
c ---- [ result ] ------------------------------------------------------------
c
s UNSATISFIABLE
c
c ---- [ profiling ] ---------------------------------------------------------
c
c           0.46   57.96 %  simplify
c           0.45   57.56 %  probe
c           0.24   30.76 %  vivify
c           0.23   29.38 %  search
c           0.17   21.38 %  failed
c           0.13   16.54 %  focused
c           0.10   12.82 %  stable
c           0.10   12.64 %  parse
c           0.02    2.75 %  transitive
c           0.02    2.61 %  reduce
c           0.02    2.34 %  substitute
c           0.00    0.40 %  autarky
c           0.00    0.32 %  ternary
c =============================================
c           0.79  100.00 %  total
c
c ---- [ statistics ] --------------------------------------------------------
c
c conflicts:                             2549             3231.71 per second
c decisions:                            11329                4.44 per conflict
c propagations:                       6558338          8314882    per second
c reductions:                               3              850    interval
c rephased:                                 1             2549    interval
c restarts:                               233               10.94 interval
c
c ---- [ resources ] ---------------------------------------------------------
c
c maximum-resident-set-size:         22085632 bytes         21 MB
c process-time:                             0s               0.79 seconds
c
c ---- [ shutting down ] -----------------------------------------------------
c
c exit 20

SAT solver OK

VALID
c array.sh: end:      Tue Feb 16 22:56:40 CET 2021
